c User generated cnf file
p cnf 9 52
6 -3 5 0 
2 -8 1 0 
2 -2 6 0 
6 6 -9 0 
3 9 -6 0 
8 -8 8 0 
7 3 -3 0 
8 -3 1 0 
6 5 -8 0 
9 -6 2 0 
7 3 -4 0 
8 -7 7 0 
9 5 -5 0 
1 2 -7 0 
2 6 -9 0 
8 4 -3 0 
5 1 -5 0 
3 2 -6 0 
2 -1 1 0 
5 4 -4 0 
1 -4 7 0 
1 2 -6 0 
9 5 -6 0 
8 8 -7 0 
7 7 -3 0 
7 3 -7 0 
6 9 -3 0 
4 -5 6 0 
7 1 -8 0 
1 -4 4 0 
7 -6 1 0 
7 6 -9 0 
6 -7 9 0 
3 6 -6 0 
1 -6 3 0 
3 1 -8 0 
1 -2 5 0 
8 -5 6 0 
6 3 -4 0 
6 -9 9 0 
8 -2 3 0 
1 -8 5 0 
1 3 -9 0 
7 5 -5 0 
4 -7 9 0 
7 7 -1 0 
1 -7 5 0 
1 -7 1 0 
2 5 -6 0 
3 -8 4 0 
2 -9 8 0 
6 -3 1 0 
